1 16
2 18
3 5
4 18
5 16
6 22
7 14
8 17
9 15
10 3
11 13
12 13
13 19
14 21
15 2
16 22
17 12
18 1
19 13
20 10
21 17
22 1
23 6
24 8
25 15
26 6
27 15
28 4
29 17
30 16
31 17
32 24
33 7
34 24
35 6
36 8
37 7
38 2
39 9
40 24
41 24
42 6
43 24
44 17
45 16
46 6
47 2
48 14
49 19
50 5
51 20
52 17
53 10
54 11
55 13
56 17
57 10
58 11
59 12
60 12
61 5
62 20
63 4
64 6
65 18
66 9
67 6
68 20
69 18
70 11
71 12
72 11
73 4
74 12
75 13
76 12
77 16
78 20
79 20
80 20
81 20
82 14
83 15
84 14
85 11
86 3
87 4
88 5
89 18
90 17
91 19
92 19
93 4
94 10
95 10
96 15
97 6
98 3
99 23
100 7
101 8
102 1
103 22
104 2
105 10
106 17
107 6
108 5
109 5
110 6
111 6
112 1
113 4
114 22
115 22
116 22
117 8
118 1
119 2
120 10
121 3
122 3
123 13
124 22
125 19
126 9
127 20
128 15
129 16
130 24
131 24
132 24
133 24
134 20
135 20
136 17
137 18
138 18
139 5
140 18
141 5
142 4
143 12
144 12
145 19
146 15
147 20
148 20
149 23
150 20
151 10
152 2
153 1
154 1
155 8
156 11
157 12
158 14
159 8
160 9
161 6
162 9
163 4
164 19
165 9
166 8
167 15
168 2
169 3
170 15
171 11
172 16
173 22
174 21
175 2
176 9
177 14
178 14
179 11
180 6
181 21
